La Ni O
1.0
 1.56361568   -2.70826180    4.30823758   
 1.56361568    2.70826180    4.30823758   
-3.12723135    0.00000000    4.30823758   
La Ni O
2 2 6 
d
0.25000000   0.25000000   0.25000000   La
0.75000000   0.75000000   0.75000000   La
0.00000000   0.00000000   0.00000000   Ni
0.50000000   0.50000000   0.50000000   Ni
0.69805661   0.80194339   0.25000000   O
0.80194339   0.25000000   0.69805661   O
0.25000000   0.69805661   0.80194339   O
0.30194339   0.19805661   0.75000000   O
0.19805661   0.75000000   0.30194339   O
0.75000000   0.30194339   0.19805661   O
