La Ni O                                 
   1.00000000000000     
     1.5457044099999999   -2.6772385700000001    4.2797787400000002
     1.5457044099999999    2.6772385700000001    4.2797787400000002
    -3.0914088099999999    0.0000000000000000    4.2797787400000002
   La   Ni   O 
     2     2     6
Direct
  0.2500000000000000  0.2500000000000000  0.2500000000000000
  0.7500000000000000  0.7500000000000000  0.7500000000000000
  0.0000000000000000  0.0000000000000000  0.0000000000000000
  0.5000000000000000  0.5000000000000000  0.5000000000000000
  0.7047815199999974  0.7952184800000026  0.2500000000000000
  0.7952184800000026  0.2500000000000000  0.7047815199999974
  0.2500000000000000  0.7047815199999974  0.7952184800000026
  0.2952184800000026  0.2047815199999974  0.7500000000000000
  0.2047815199999974  0.7500000000000000  0.2952184800000026
  0.7500000000000000  0.2952184800000026  0.2047815199999974
 
  0.00000000E+00  0.00000000E+00  0.00000000E+00
  0.00000000E+00  0.00000000E+00  0.00000000E+00
  0.00000000E+00  0.00000000E+00  0.00000000E+00
  0.00000000E+00  0.00000000E+00  0.00000000E+00
  0.00000000E+00  0.00000000E+00  0.00000000E+00
  0.00000000E+00  0.00000000E+00  0.00000000E+00
  0.00000000E+00  0.00000000E+00  0.00000000E+00
  0.00000000E+00  0.00000000E+00  0.00000000E+00
  0.00000000E+00  0.00000000E+00  0.00000000E+00
  0.00000000E+00  0.00000000E+00  0.00000000E+00
