ALGO = Fast 
EDIFF = 1E-8
EDIFFG = -1E-10
ENCUT = 600
IBRION = 2
#ICHARG = 1
ISIF = 3
ISMEAR = 1 
ISPIN = 1 
#LDAU = True
#LDAUJ = 0 0 0
#LDAUL = 0 2 0
#LDAUPRINT = 1
#LDAUTYPE = 2
#LDAUU = 0 5.0 0
LMAXMIX = 6
LORBIT = 11
LREAL = Auto
LWAVE = False
#MAGMOM = 6*0.6 6*5.0 12*0.6
NELM = 100
NSW = 100 
PREC = Accurate
SIGMA = 0.05

