coord.13.02
 0
Gamma point shift
 4 4 4 
 0 0 0

