num_bands   =  46
dis_win_min  = -0.3014
dis_win_max  = 10.6986
num_wann   = 28
kmesh_tol   = 0.0001
num_iter   = 100

begin projections
f=0.00000000,0.00000000,0.00000000:l=2:z=-0.29712138,0.77011009,0.56449032:x=-0.52491861,-0.62540726,0.57692379
f=0.50000000,0.50000000,0.50000000:l=2:z=0.29712138,0.77011009,-0.56449032:x=0.52491861,-0.62540726,-0.57692379
O:p
end projections

begin unit_cell_cart
     1.5457044    -2.6772386     4.2797787
     1.5457044     2.6772386     4.2797787
    -3.0914088     0.0000000     4.2797787
end unit_cell_cart

begin atoms_cart
La       0.0000000     0.0000000     3.2098341
La       0.0000000     0.0000000     9.6295022
Ni       0.0000000     0.0000000     0.0000000
Ni       0.0000000     0.0000000     6.4196681
O        1.5457044     0.2421213     7.4896128
O       -0.5631690    -1.4596799     7.4896128
O       -0.9825354     1.2175586     7.4896128
O       -1.5457044    -0.2421213     5.3497234
O        0.5631690     1.4596799     5.3497234
O        0.9825354    -1.2175586     5.3497234
end atoms_cart

mp_grid =     8     8     8

begin kpoints
      0.000000000000      0.000000000000      0.000000000000
      0.125000000000      0.000000000000      0.000000000000
      0.250000000000      0.000000000000      0.000000000000
      0.375000000000      0.000000000000      0.000000000000
      0.500000000000      0.000000000000      0.000000000000
      0.125000000000      0.125000000000      0.000000000000
      0.250000000000      0.125000000000      0.000000000000
      0.375000000000      0.125000000000      0.000000000000
      0.500000000000      0.125000000000      0.000000000000
     -0.375000000000      0.125000000000     -0.000000000000
     -0.250000000000      0.125000000000      0.000000000000
     -0.125000000000      0.125000000000      0.000000000000
      0.250000000000      0.250000000000      0.000000000000
      0.375000000000      0.250000000000      0.000000000000
      0.500000000000      0.250000000000      0.000000000000
     -0.375000000000      0.250000000000     -0.000000000000
     -0.250000000000      0.250000000000      0.000000000000
      0.375000000000      0.375000000000      0.000000000000
      0.500000000000      0.375000000000      0.000000000000
     -0.375000000000      0.375000000000      0.000000000000
      0.500000000000      0.500000000000      0.000000000000
      0.125000000000      0.125000000000      0.125000000000
      0.250000000000      0.125000000000      0.125000000000
      0.375000000000      0.125000000000      0.125000000000
      0.500000000000      0.125000000000      0.125000000000
     -0.375000000000      0.125000000000      0.125000000000
     -0.250000000000      0.125000000000      0.125000000000
     -0.125000000000      0.125000000000      0.125000000000
      0.250000000000      0.250000000000      0.125000000000
      0.375000000000      0.250000000000      0.125000000000
      0.500000000000      0.250000000000      0.125000000000
     -0.375000000000      0.250000000000      0.125000000000
     -0.250000000000      0.250000000000      0.125000000000
     -0.125000000000      0.250000000000      0.125000000000
      0.375000000000      0.375000000000      0.125000000000
      0.500000000000      0.375000000000      0.125000000000
     -0.375000000000      0.375000000000      0.125000000000
     -0.250000000000      0.375000000000      0.125000000000
     -0.125000000000      0.375000000000      0.125000000000
      0.500000000000      0.500000000000      0.125000000000
     -0.375000000000      0.500000000000      0.125000000000
     -0.250000000000      0.500000000000      0.125000000000
     -0.125000000000      0.500000000000      0.125000000000
     -0.375000000000     -0.375000000000      0.125000000000
     -0.250000000000     -0.375000000000      0.125000000000
     -0.250000000000     -0.250000000000      0.125000000000
      0.250000000000      0.250000000000      0.250000000000
      0.375000000000      0.250000000000      0.250000000000
      0.500000000000      0.250000000000      0.250000000000
     -0.375000000000      0.250000000000      0.250000000000
     -0.250000000000      0.250000000000      0.250000000000
      0.375000000000      0.375000000000      0.250000000000
      0.500000000000      0.375000000000      0.250000000000
     -0.375000000000      0.375000000000      0.250000000000
     -0.250000000000      0.375000000000      0.250000000000
      0.500000000000      0.500000000000      0.250000000000
     -0.375000000000      0.500000000000      0.250000000000
     -0.250000000000      0.500000000000      0.250000000000
     -0.375000000000     -0.375000000000      0.250000000000
      0.375000000000      0.375000000000      0.375000000000
      0.500000000000      0.375000000000      0.375000000000
     -0.375000000000      0.375000000000      0.375000000000
      0.500000000000      0.500000000000      0.375000000000
     -0.375000000000      0.500000000000      0.375000000000
      0.500000000000      0.500000000000      0.500000000000
     -0.125000000000     -0.000000000000      0.000000000000
      0.000000000000      0.125000000000      0.000000000000
      0.000000000000     -0.125000000000     -0.000000000000
      0.000000000000      0.000000000000      0.125000000000
     -0.000000000000      0.000000000000     -0.125000000000
     -0.250000000000     -0.000000000000      0.000000000000
      0.000000000000      0.250000000000      0.000000000000
      0.000000000000     -0.250000000000     -0.000000000000
      0.000000000000      0.000000000000      0.250000000000
     -0.000000000000      0.000000000000     -0.250000000000
     -0.375000000000      0.000000000000      0.000000000000
      0.000000000000      0.375000000000      0.000000000000
      0.000000000000     -0.375000000000      0.000000000000
      0.000000000000      0.000000000000      0.375000000000
      0.000000000000      0.000000000000     -0.375000000000
      0.000000000000      0.500000000000      0.000000000000
      0.000000000000      0.000000000000      0.500000000000
     -0.125000000000     -0.125000000000      0.000000000000
      0.000000000000      0.125000000000      0.125000000000
      0.000000000000     -0.125000000000     -0.125000000000
      0.125000000000      0.000000000000      0.125000000000
     -0.125000000000      0.000000000000     -0.125000000000
     -0.250000000000     -0.125000000000      0.000000000000
      0.000000000000      0.250000000000      0.125000000000
      0.000000000000     -0.250000000000     -0.125000000000
      0.125000000000      0.000000000000      0.250000000000
     -0.125000000000      0.000000000000     -0.250000000000
     -0.250000000000      0.000000000000     -0.125000000000
      0.250000000000      0.000000000000      0.125000000000
     -0.125000000000     -0.250000000000      0.000000000000
      0.125000000000      0.250000000000      0.000000000000
      0.000000000000     -0.125000000000     -0.250000000000
      0.000000000000      0.125000000000      0.250000000000
     -0.375000000000     -0.125000000000      0.000000000000
      0.000000000000      0.375000000000      0.125000000000
      0.000000000000     -0.375000000000     -0.125000000000
      0.125000000000      0.000000000000      0.375000000000
     -0.125000000000      0.000000000000     -0.375000000000
     -0.375000000000      0.000000000000     -0.125000000000
      0.375000000000      0.000000000000      0.125000000000
     -0.125000000000     -0.375000000000      0.000000000000
      0.125000000000      0.375000000000      0.000000000000
      0.000000000000     -0.125000000000     -0.375000000000
      0.000000000000      0.125000000000      0.375000000000
     -0.500000000000     -0.125000000000     -0.000000000000
      0.000000000000      0.500000000000      0.125000000000
     -0.000000000000     -0.500000000000     -0.125000000000
      0.125000000000      0.000000000000      0.500000000000
     -0.125000000000     -0.000000000000     -0.500000000000
     -0.500000000000     -0.000000000000     -0.125000000000
      0.500000000000      0.000000000000      0.125000000000
     -0.125000000000     -0.500000000000     -0.000000000000
      0.125000000000      0.500000000000      0.000000000000
     -0.000000000000     -0.125000000000     -0.500000000000
      0.000000000000      0.125000000000      0.500000000000
      0.375000000000     -0.125000000000      0.000000000000
     -0.000000000000     -0.375000000000      0.125000000000
      0.000000000000      0.375000000000     -0.125000000000
      0.125000000000     -0.000000000000     -0.375000000000
     -0.125000000000      0.000000000000      0.375000000000
      0.375000000000      0.000000000000     -0.125000000000
     -0.375000000000     -0.000000000000      0.125000000000
     -0.125000000000      0.375000000000      0.000000000000
      0.125000000000     -0.375000000000     -0.000000000000
      0.000000000000     -0.125000000000      0.375000000000
     -0.000000000000      0.125000000000     -0.375000000000
      0.250000000000     -0.125000000000     -0.000000000000
      0.000000000000     -0.250000000000      0.125000000000
     -0.000000000000      0.250000000000     -0.125000000000
      0.125000000000      0.000000000000     -0.250000000000
     -0.125000000000     -0.000000000000      0.250000000000
      0.250000000000     -0.000000000000     -0.125000000000
     -0.250000000000      0.000000000000      0.125000000000
     -0.125000000000      0.250000000000     -0.000000000000
      0.125000000000     -0.250000000000      0.000000000000
     -0.000000000000     -0.125000000000      0.250000000000
      0.000000000000      0.125000000000     -0.250000000000
      0.125000000000     -0.125000000000      0.000000000000
      0.000000000000     -0.125000000000      0.125000000000
      0.000000000000      0.125000000000     -0.125000000000
      0.125000000000      0.000000000000     -0.125000000000
     -0.125000000000      0.000000000000      0.125000000000
     -0.250000000000     -0.250000000000      0.000000000000
      0.000000000000      0.250000000000      0.250000000000
      0.000000000000     -0.250000000000     -0.250000000000
      0.250000000000      0.000000000000      0.250000000000
     -0.250000000000      0.000000000000     -0.250000000000
     -0.375000000000     -0.250000000000      0.000000000000
      0.000000000000      0.375000000000      0.250000000000
      0.000000000000     -0.375000000000     -0.250000000000
      0.250000000000      0.000000000000      0.375000000000
     -0.250000000000      0.000000000000     -0.375000000000
     -0.375000000000      0.000000000000     -0.250000000000
      0.375000000000      0.000000000000      0.250000000000
     -0.250000000000     -0.375000000000      0.000000000000
      0.250000000000      0.375000000000      0.000000000000
      0.000000000000     -0.250000000000     -0.375000000000
      0.000000000000      0.250000000000      0.375000000000
     -0.500000000000     -0.250000000000      0.000000000000
      0.000000000000      0.500000000000      0.250000000000
      0.000000000000     -0.500000000000     -0.250000000000
      0.250000000000      0.000000000000      0.500000000000
     -0.250000000000      0.000000000000     -0.500000000000
     -0.500000000000      0.000000000000     -0.250000000000
      0.500000000000      0.000000000000      0.250000000000
     -0.250000000000     -0.500000000000      0.000000000000
      0.250000000000      0.500000000000      0.000000000000
      0.000000000000     -0.250000000000     -0.500000000000
      0.000000000000      0.250000000000      0.500000000000
      0.375000000000     -0.250000000000      0.000000000000
     -0.000000000000     -0.375000000000      0.250000000000
      0.000000000000      0.375000000000     -0.250000000000
      0.250000000000     -0.000000000000     -0.375000000000
     -0.250000000000      0.000000000000      0.375000000000
      0.375000000000      0.000000000000     -0.250000000000
     -0.375000000000     -0.000000000000      0.250000000000
     -0.250000000000      0.375000000000      0.000000000000
      0.250000000000     -0.375000000000     -0.000000000000
      0.000000000000     -0.250000000000      0.375000000000
     -0.000000000000      0.250000000000     -0.375000000000
      0.250000000000     -0.250000000000      0.000000000000
      0.000000000000     -0.250000000000      0.250000000000
      0.000000000000      0.250000000000     -0.250000000000
      0.250000000000      0.000000000000     -0.250000000000
     -0.250000000000      0.000000000000      0.250000000000
     -0.375000000000     -0.375000000000     -0.000000000000
      0.000000000000      0.375000000000      0.375000000000
     -0.000000000000     -0.375000000000     -0.375000000000
      0.375000000000      0.000000000000      0.375000000000
     -0.375000000000     -0.000000000000     -0.375000000000
     -0.500000000000     -0.375000000000     -0.000000000000
      0.000000000000      0.500000000000      0.375000000000
     -0.000000000000     -0.500000000000     -0.375000000000
      0.375000000000      0.000000000000      0.500000000000
     -0.375000000000     -0.000000000000     -0.500000000000
     -0.500000000000     -0.000000000000     -0.375000000000
      0.500000000000      0.000000000000      0.375000000000
     -0.375000000000     -0.500000000000     -0.000000000000
      0.375000000000      0.500000000000      0.000000000000
     -0.000000000000     -0.375000000000     -0.500000000000
      0.000000000000      0.375000000000      0.500000000000
      0.375000000000     -0.375000000000      0.000000000000
      0.000000000000     -0.375000000000      0.375000000000
      0.000000000000      0.375000000000     -0.375000000000
      0.375000000000      0.000000000000     -0.375000000000
     -0.375000000000      0.000000000000      0.375000000000
      0.000000000000      0.500000000000      0.500000000000
      0.500000000000      0.000000000000      0.500000000000
     -0.125000000000     -0.125000000000     -0.125000000000
     -0.250000000000     -0.125000000000     -0.125000000000
      0.125000000000      0.250000000000      0.125000000000
     -0.125000000000     -0.250000000000     -0.125000000000
      0.125000000000      0.125000000000      0.250000000000
     -0.125000000000     -0.125000000000     -0.250000000000
     -0.375000000000     -0.125000000000     -0.125000000000
      0.125000000000      0.375000000000      0.125000000000
     -0.125000000000     -0.375000000000     -0.125000000000
      0.125000000000      0.125000000000      0.375000000000
     -0.125000000000     -0.125000000000     -0.375000000000
     -0.500000000000     -0.125000000000     -0.125000000000
      0.125000000000      0.500000000000      0.125000000000
     -0.125000000000     -0.500000000000     -0.125000000000
      0.125000000000      0.125000000000      0.500000000000
     -0.125000000000     -0.125000000000     -0.500000000000
      0.375000000000     -0.125000000000     -0.125000000000
      0.125000000000     -0.375000000000      0.125000000000
     -0.125000000000      0.375000000000     -0.125000000000
      0.125000000000      0.125000000000     -0.375000000000
     -0.125000000000     -0.125000000000      0.375000000000
      0.250000000000     -0.125000000000     -0.125000000000
      0.125000000000     -0.250000000000      0.125000000000
     -0.125000000000      0.250000000000     -0.125000000000
      0.125000000000      0.125000000000     -0.250000000000
     -0.125000000000     -0.125000000000      0.250000000000
      0.125000000000     -0.125000000000     -0.125000000000
      0.125000000000     -0.125000000000      0.125000000000
     -0.125000000000      0.125000000000     -0.125000000000
      0.125000000000      0.125000000000     -0.125000000000
     -0.125000000000     -0.125000000000      0.125000000000
     -0.250000000000     -0.250000000000     -0.125000000000
      0.125000000000      0.250000000000      0.250000000000
     -0.125000000000     -0.250000000000     -0.250000000000
      0.250000000000      0.125000000000      0.250000000000
     -0.250000000000     -0.125000000000     -0.250000000000
     -0.375000000000     -0.250000000000     -0.125000000000
      0.125000000000      0.375000000000      0.250000000000
     -0.125000000000     -0.375000000000     -0.250000000000
      0.250000000000      0.125000000000      0.375000000000
     -0.250000000000     -0.125000000000     -0.375000000000
     -0.375000000000     -0.125000000000     -0.250000000000
      0.375000000000      0.125000000000      0.250000000000
     -0.250000000000     -0.375000000000     -0.125000000000
      0.250000000000      0.375000000000      0.125000000000
     -0.125000000000     -0.250000000000     -0.375000000000
      0.125000000000      0.250000000000      0.375000000000
     -0.500000000000     -0.250000000000     -0.125000000000
      0.125000000000      0.500000000000      0.250000000000
     -0.125000000000     -0.500000000000     -0.250000000000
      0.250000000000      0.125000000000      0.500000000000
     -0.250000000000     -0.125000000000     -0.500000000000
     -0.500000000000     -0.125000000000     -0.250000000000
      0.500000000000      0.125000000000      0.250000000000
     -0.250000000000     -0.500000000000     -0.125000000000
      0.250000000000      0.500000000000      0.125000000000
     -0.125000000000     -0.250000000000     -0.500000000000
      0.125000000000      0.250000000000      0.500000000000
      0.375000000000     -0.250000000000     -0.125000000000
      0.125000000000     -0.375000000000      0.250000000000
     -0.125000000000      0.375000000000     -0.250000000000
      0.250000000000      0.125000000000     -0.375000000000
     -0.250000000000     -0.125000000000      0.375000000000
      0.375000000000     -0.125000000000     -0.250000000000
     -0.375000000000      0.125000000000      0.250000000000
     -0.250000000000      0.375000000000     -0.125000000000
      0.250000000000     -0.375000000000      0.125000000000
     -0.125000000000     -0.250000000000      0.375000000000
      0.125000000000      0.250000000000     -0.375000000000
      0.250000000000     -0.250000000000     -0.125000000000
      0.125000000000     -0.250000000000      0.250000000000
     -0.125000000000      0.250000000000     -0.250000000000
      0.250000000000      0.125000000000     -0.250000000000
     -0.250000000000     -0.125000000000      0.250000000000
      0.250000000000     -0.125000000000     -0.250000000000
     -0.250000000000      0.125000000000      0.250000000000
     -0.250000000000      0.250000000000     -0.125000000000
      0.250000000000     -0.250000000000      0.125000000000
     -0.125000000000     -0.250000000000      0.250000000000
      0.125000000000      0.250000000000     -0.250000000000
      0.125000000000     -0.250000000000     -0.125000000000
      0.125000000000     -0.125000000000      0.250000000000
     -0.125000000000      0.125000000000     -0.250000000000
      0.250000000000      0.125000000000     -0.125000000000
     -0.250000000000     -0.125000000000      0.125000000000
      0.125000000000     -0.125000000000     -0.250000000000
     -0.125000000000      0.125000000000      0.250000000000
     -0.250000000000      0.125000000000     -0.125000000000
      0.250000000000     -0.125000000000      0.125000000000
     -0.125000000000     -0.250000000000      0.125000000000
      0.125000000000      0.250000000000     -0.125000000000
     -0.375000000000     -0.375000000000     -0.125000000000
      0.125000000000      0.375000000000      0.375000000000
     -0.125000000000     -0.375000000000     -0.375000000000
      0.375000000000      0.125000000000      0.375000000000
     -0.375000000000     -0.125000000000     -0.375000000000
     -0.500000000000     -0.375000000000     -0.125000000000
      0.125000000000      0.500000000000      0.375000000000
     -0.125000000000     -0.500000000000     -0.375000000000
      0.375000000000      0.125000000000      0.500000000000
     -0.375000000000     -0.125000000000     -0.500000000000
     -0.500000000000     -0.125000000000     -0.375000000000
      0.500000000000      0.125000000000      0.375000000000
     -0.375000000000     -0.500000000000     -0.125000000000
      0.375000000000      0.500000000000      0.125000000000
     -0.125000000000     -0.375000000000     -0.500000000000
      0.125000000000      0.375000000000      0.500000000000
      0.375000000000     -0.375000000000     -0.125000000000
      0.125000000000     -0.375000000000      0.375000000000
     -0.125000000000      0.375000000000     -0.375000000000
      0.375000000000      0.125000000000     -0.375000000000
     -0.375000000000     -0.125000000000      0.375000000000
      0.375000000000     -0.125000000000     -0.375000000000
     -0.375000000000      0.125000000000      0.375000000000
     -0.375000000000      0.375000000000     -0.125000000000
      0.375000000000     -0.375000000000      0.125000000000
     -0.125000000000     -0.375000000000      0.375000000000
      0.125000000000      0.375000000000     -0.375000000000
      0.250000000000     -0.375000000000     -0.125000000000
      0.125000000000     -0.250000000000      0.375000000000
     -0.125000000000      0.250000000000     -0.375000000000
      0.375000000000      0.125000000000     -0.250000000000
     -0.375000000000     -0.125000000000      0.250000000000
      0.250000000000     -0.125000000000     -0.375000000000
     -0.250000000000      0.125000000000      0.375000000000
     -0.375000000000      0.250000000000     -0.125000000000
      0.375000000000     -0.250000000000      0.125000000000
     -0.125000000000     -0.375000000000      0.250000000000
      0.125000000000      0.375000000000     -0.250000000000
      0.125000000000     -0.375000000000     -0.125000000000
      0.125000000000     -0.125000000000      0.375000000000
     -0.125000000000      0.125000000000     -0.375000000000
      0.375000000000      0.125000000000     -0.125000000000
     -0.375000000000     -0.125000000000      0.125000000000
      0.125000000000     -0.125000000000     -0.375000000000
     -0.125000000000      0.125000000000      0.375000000000
     -0.375000000000      0.125000000000     -0.125000000000
      0.375000000000     -0.125000000000      0.125000000000
     -0.125000000000     -0.375000000000      0.125000000000
      0.125000000000      0.375000000000     -0.125000000000
     -0.500000000000     -0.500000000000     -0.125000000000
      0.125000000000      0.500000000000      0.500000000000
     -0.125000000000     -0.500000000000     -0.500000000000
      0.500000000000      0.125000000000      0.500000000000
     -0.500000000000     -0.125000000000     -0.500000000000
      0.375000000000     -0.500000000000     -0.125000000000
      0.125000000000     -0.375000000000      0.500000000000
     -0.125000000000      0.375000000000     -0.500000000000
      0.500000000000      0.125000000000     -0.375000000000
     -0.500000000000     -0.125000000000      0.375000000000
      0.375000000000     -0.125000000000     -0.500000000000
     -0.375000000000      0.125000000000      0.500000000000
     -0.500000000000      0.375000000000     -0.125000000000
      0.500000000000     -0.375000000000      0.125000000000
     -0.125000000000     -0.500000000000      0.375000000000
      0.125000000000      0.500000000000     -0.375000000000
      0.250000000000     -0.500000000000     -0.125000000000
      0.125000000000     -0.250000000000      0.500000000000
     -0.125000000000      0.250000000000     -0.500000000000
      0.500000000000      0.125000000000     -0.250000000000
     -0.500000000000     -0.125000000000      0.250000000000
      0.250000000000     -0.125000000000     -0.500000000000
     -0.250000000000      0.125000000000      0.500000000000
     -0.500000000000      0.250000000000     -0.125000000000
      0.500000000000     -0.250000000000      0.125000000000
     -0.125000000000     -0.500000000000      0.250000000000
      0.125000000000      0.500000000000     -0.250000000000
      0.125000000000     -0.500000000000     -0.125000000000
      0.125000000000     -0.125000000000      0.500000000000
     -0.125000000000      0.125000000000     -0.500000000000
      0.500000000000      0.125000000000     -0.125000000000
     -0.500000000000     -0.125000000000      0.125000000000
      0.375000000000      0.375000000000     -0.125000000000
      0.125000000000     -0.375000000000     -0.375000000000
     -0.125000000000      0.375000000000      0.375000000000
     -0.375000000000      0.125000000000     -0.375000000000
      0.375000000000     -0.125000000000      0.375000000000
      0.250000000000      0.375000000000     -0.125000000000
      0.125000000000     -0.250000000000     -0.375000000000
     -0.125000000000      0.250000000000      0.375000000000
     -0.375000000000      0.125000000000     -0.250000000000
      0.375000000000     -0.125000000000      0.250000000000
      0.250000000000     -0.125000000000      0.375000000000
     -0.250000000000      0.125000000000     -0.375000000000
      0.375000000000      0.250000000000     -0.125000000000
     -0.375000000000     -0.250000000000      0.125000000000
     -0.125000000000      0.375000000000      0.250000000000
      0.125000000000     -0.375000000000     -0.250000000000
      0.250000000000      0.250000000000     -0.125000000000
      0.125000000000     -0.250000000000     -0.250000000000
     -0.125000000000      0.250000000000      0.250000000000
     -0.250000000000      0.125000000000     -0.250000000000
      0.250000000000     -0.125000000000      0.250000000000
     -0.250000000000     -0.250000000000     -0.250000000000
     -0.375000000000     -0.250000000000     -0.250000000000
      0.250000000000      0.375000000000      0.250000000000
     -0.250000000000     -0.375000000000     -0.250000000000
      0.250000000000      0.250000000000      0.375000000000
     -0.250000000000     -0.250000000000     -0.375000000000
     -0.500000000000     -0.250000000000     -0.250000000000
      0.250000000000      0.500000000000      0.250000000000
     -0.250000000000     -0.500000000000     -0.250000000000
      0.250000000000      0.250000000000      0.500000000000
     -0.250000000000     -0.250000000000     -0.500000000000
      0.375000000000     -0.250000000000     -0.250000000000
      0.250000000000     -0.375000000000      0.250000000000
     -0.250000000000      0.375000000000     -0.250000000000
      0.250000000000      0.250000000000     -0.375000000000
     -0.250000000000     -0.250000000000      0.375000000000
      0.250000000000     -0.250000000000     -0.250000000000
      0.250000000000     -0.250000000000      0.250000000000
     -0.250000000000      0.250000000000     -0.250000000000
      0.250000000000      0.250000000000     -0.250000000000
     -0.250000000000     -0.250000000000      0.250000000000
     -0.375000000000     -0.375000000000     -0.250000000000
      0.250000000000      0.375000000000      0.375000000000
     -0.250000000000     -0.375000000000     -0.375000000000
      0.375000000000      0.250000000000      0.375000000000
     -0.375000000000     -0.250000000000     -0.375000000000
     -0.500000000000     -0.375000000000     -0.250000000000
      0.250000000000      0.500000000000      0.375000000000
     -0.250000000000     -0.500000000000     -0.375000000000
      0.375000000000      0.250000000000      0.500000000000
     -0.375000000000     -0.250000000000     -0.500000000000
     -0.500000000000     -0.250000000000     -0.375000000000
      0.500000000000      0.250000000000      0.375000000000
     -0.375000000000     -0.500000000000     -0.250000000000
      0.375000000000      0.500000000000      0.250000000000
     -0.250000000000     -0.375000000000     -0.500000000000
      0.250000000000      0.375000000000      0.500000000000
      0.375000000000     -0.375000000000     -0.250000000000
      0.250000000000     -0.375000000000      0.375000000000
     -0.250000000000      0.375000000000     -0.375000000000
      0.375000000000      0.250000000000     -0.375000000000
     -0.375000000000     -0.250000000000      0.375000000000
      0.375000000000     -0.250000000000     -0.375000000000
     -0.375000000000      0.250000000000      0.375000000000
     -0.375000000000      0.375000000000     -0.250000000000
      0.375000000000     -0.375000000000      0.250000000000
     -0.250000000000     -0.375000000000      0.375000000000
      0.250000000000      0.375000000000     -0.375000000000
      0.250000000000     -0.375000000000     -0.250000000000
      0.250000000000     -0.250000000000      0.375000000000
     -0.250000000000      0.250000000000     -0.375000000000
      0.375000000000      0.250000000000     -0.250000000000
     -0.375000000000     -0.250000000000      0.250000000000
      0.250000000000     -0.250000000000     -0.375000000000
     -0.250000000000      0.250000000000      0.375000000000
     -0.375000000000      0.250000000000     -0.250000000000
      0.375000000000     -0.250000000000      0.250000000000
     -0.250000000000     -0.375000000000      0.250000000000
      0.250000000000      0.375000000000     -0.250000000000
     -0.500000000000     -0.500000000000     -0.250000000000
      0.250000000000      0.500000000000      0.500000000000
     -0.250000000000     -0.500000000000     -0.500000000000
      0.500000000000      0.250000000000      0.500000000000
     -0.500000000000     -0.250000000000     -0.500000000000
      0.375000000000     -0.500000000000     -0.250000000000
      0.250000000000     -0.375000000000      0.500000000000
     -0.250000000000      0.375000000000     -0.500000000000